Route #1: 6 4
Route #2: 30 48 5
Route #3: 29 45 27 52
Route #4: 34 46 8
Route #5: 35 19 54 13 15
Route #6: 20 37 36 47
Route #7: 21 28 22
Route #8: 2 33
Route #9: 1 43 42 41 23
Route #10: 16 49 24 18
Route #11: 50 25 9
Route #12: 32 44 3 51
Route #13: 17 40 12
Route #14: 39 31 10
Route #15: 38 11
Route #16: 14 53 7
Route #17: 26
Cost 974